



































































































18 39 5 25 26 2 
45 15 34 1 68 
23 21 52 40 65 
51 69 57 70 44 27 
67 35 12 42 48 
63 47 46 54 13 
37 43 53 7 59 
4 29 76 6 58 
16 36 62 74 3 
55 20 28 75 64 33 
0 10 61 41 73 
19 38 11 49 22 
30 66 72 17 8 
56 9 50 31 
60 71 14 24 32 
